33D32945 STP File, STP Format Version 1.0

SECTION Comment
Name "i640-134-PCST"
Creator "Indaco Biazzo" 
Remark "derived from Incidence graph by Cees Duin"
END

SECTION Graph
Nodes 640
Edges 1280
E 1 126 203.000000
E 1 159 198.000000
E 1 266 197.000000
E 1 315 204.000000
E 1 344 204.000000
E 1 347 195.000000
E 1 512 200.000000
E 1 545 201.000000
E 1 571 198.000000
E 1 577 209.000000
E 1 618 200.000000
E 1 629 196.000000
E 2 4 294.000000
E 2 268 196.000000
E 2 309 199.000000
E 2 402 205.000000
E 3 252 201.000000
E 3 361 203.000000
E 3 410 202.000000
E 4 488 199.000000
E 4 551 194.000000
E 4 554 193.000000
E 4 584 198.000000
E 5 95 217.000000
E 5 153 197.000000
E 5 163 197.000000
E 5 317 199.000000
E 5 403 193.000000
E 6 177 195.000000
E 6 538 201.000000
E 6 582 194.000000
E 7 280 192.000000
E 7 378 191.000000
E 7 383 205.000000
E 8 118 205.000000
E 8 233 206.000000
E 8 280 204.000000
E 8 374 208.000000
E 9 347 202.000000
E 9 432 205.000000
E 9 558 201.000000
E 10 178 204.000000
E 10 207 199.000000
E 10 279 202.000000
E 10 435 204.000000
E 11 42 195.000000
E 11 86 202.000000
E 11 325 201.000000
E 11 344 191.000000
E 11 517 198.000000
E 12 246 203.000000
E 12 317 192.000000
E 12 320 198.000000
E 12 394 200.000000
E 12 489 197.000000
E 12 603 205.000000
E 13 68 198.000000
E 13 161 199.000000
E 13 618 198.000000
E 14 290 206.000000
E 14 324 193.000000
E 14 441 209.000000
E 14 475 202.000000
E 14 490 196.000000
E 14 494 197.000000
E 14 618 200.000000
E 15 163 201.000000
E 15 597 202.000000
E 15 626 198.000000
E 16 107 208.000000
E 16 526 198.000000
E 17 145 205.000000
E 17 281 204.000000
E 17 345 197.000000
E 17 638 193.000000
E 18 88 199.000000
E 18 323 196.000000
E 18 421 194.000000
E 18 428 204.000000
E 18 545 197.000000
E 18 601 201.000000
E 19 142 200.000000
E 19 189 201.000000
E 19 273 194.000000
E 19 468 193.000000
E 19 473 192.000000
E 19 487 199.000000
E 19 499 200.000000
E 20 131 196.000000
E 20 311 195.000000
E 20 390 196.000000
E 20 419 203.000000
E 20 438 204.000000
E 21 263 202.000000
E 21 423 194.000000
E 22 197 202.000000
E 22 252 191.000000
E 22 544 199.000000
E 23 116 201.000000
E 23 459 203.000000
E 24 329 194.000000
E 24 437 211.000000
E 24 579 204.000000
E 25 229 196.000000
E 25 591 198.000000
E 26 133 98.000000
E 26 391 99.000000
E 26 611 101.000000
E 27 190 109.000000
E 27 316 103.000000
E 27 364 102.000000
E 27 600 101.000000
E 28 181 104.000000
E 28 481 103.000000
E 28 485 95.000000
E 29 40 95.000000
E 29 126 110.000000
E 29 162 99.000000
E 29 171 95.000000
E 29 525 97.000000
E 29 585 101.000000
E 30 75 102.000000
E 30 113 94.000000
E 30 259 95.000000
E 30 450 94.000000
E 31 258 107.000000
E 31 324 91.000000
E 31 552 101.000000
E 31 565 99.000000
E 32 48 99.000000
E 32 358 104.000000
E 32 482 99.000000
E 32 541 106.000000
E 33 50 101.000000
E 33 467 98.000000
E 33 502 86.000000
E 33 618 101.000000
E 34 69 99.000000
E 34 344 100.000000
E 34 406 104.000000
E 34 450 101.000000
E 34 508 97.000000
E 35 605 103.000000
E 35 622 96.000000
E 35 629 105.000000
E 36 144 99.000000
E 36 193 104.000000
E 36 222 107.000000
E 36 461 98.000000
E 36 542 95.000000
E 37 79 104.000000
E 37 282 104.000000
E 37 429 97.000000
E 37 502 100.000000
E 38 109 107.000000
E 38 136 97.000000
E 38 390 92.000000
E 38 616 95.000000
E 39 145 97.000000
E 39 416 106.000000
E 39 547 94.000000
E 41 177 104.000000
E 41 216 94.000000
E 41 293 96.000000
E 41 294 95.000000
E 42 105 100.000000
E 42 110 102.000000
E 42 179 88.000000
E 42 618 102.000000
E 42 625 92.000000
E 43 182 106.000000
E 43 352 91.000000
E 44 333 103.000000
E 44 496 90.000000
E 45 296 102.000000
E 45 351 100.000000
E 45 554 103.000000
E 45 582 102.000000
E 45 594 110.000000
E 46 115 104.000000
E 46 129 100.000000
E 46 137 95.000000
E 46 328 97.000000
E 46 381 97.000000
E 46 387 97.000000
E 46 428 108.000000
E 46 445 97.000000
E 47 158 95.000000
E 47 247 95.000000
E 47 374 104.000000
E 47 608 104.000000
E 48 71 87.000000
E 48 179 99.000000
E 48 194 95.000000
E 48 259 101.000000
E 48 289 104.000000
E 48 355 108.000000
E 48 452 103.000000
E 48 455 93.000000
E 48 587 104.000000
E 48 629 92.000000
E 49 283 101.000000
E 49 347 104.000000
E 49 445 101.000000
E 50 191 105.000000
E 50 314 96.000000
E 50 448 95.000000
E 50 555 96.000000
E 50 561 101.000000
E 51 325 89.000000
E 52 140 99.000000
E 52 225 100.000000
E 52 477 94.000000
E 53 193 95.000000
E 53 342 95.000000
E 53 545 96.000000
E 54 337 108.000000
E 54 420 95.000000
E 54 448 103.000000
E 54 488 88.000000
E 55 173 95.000000
E 55 617 96.000000
E 56 75 91.000000
E 56 78 99.000000
E 56 228 106.000000
E 56 375 100.000000
E 56 435 92.000000
E 56 477 97.000000
E 56 633 88.000000
E 57 317 101.000000
E 57 426 94.000000
E 57 513 93.000000
E 57 564 103.000000
E 57 634 103.000000
E 58 155 105.000000
E 58 194 109.000000
E 58 217 99.000000
E 58 611 100.000000
E 59 229 101.000000
E 59 235 103.000000
E 59 353 97.000000
E 59 378 102.000000
E 59 498 95.000000
E 59 622 95.000000
E 60 94 92.000000
E 60 170 105.000000
E 60 210 97.000000
E 60 325 99.000000
E 60 614 100.000000
E 61 129 95.000000
E 61 157 94.000000
E 61 378 99.000000
E 61 623 102.000000
E 62 106 96.000000
E 62 386 89.000000
E 62 388 102.000000
E 62 600 102.000000
E 63 85 104.000000
E 63 165 100.000000
E 63 248 100.000000
E 63 336 91.000000
E 63 520 96.000000
E 63 563 97.000000
E 63 566 87.000000
E 64 634 104.000000
E 65 126 93.000000
E 65 165 101.000000
E 65 173 97.000000
E 65 348 98.000000
E 66 262 107.000000
E 66 427 101.000000
E 66 510 106.000000
E 66 565 99.000000
E 67 147 104.000000
E 67 162 101.000000
E 67 222 98.000000
E 67 224 100.000000
E 67 353 104.000000
E 67 356 95.000000
E 67 392 99.000000
E 67 504 94.000000
E 67 608 88.000000
E 68 138 95.000000
E 68 335 98.000000
E 68 352 98.000000
E 68 463 97.000000
E 68 601 95.000000
E 68 633 94.000000
E 69 90 98.000000
E 69 187 98.000000
E 69 262 103.000000
E 70 346 105.000000
E 70 377 97.000000
E 71 246 102.000000
E 71 313 92.000000
E 71 319 104.000000
E 71 351 101.000000
E 71 507 94.000000
E 71 597 98.000000
E 71 617 103.000000
E 72 133 100.000000
E 72 200 95.000000
E 72 514 94.000000
E 72 538 95.000000
E 73 245 91.000000
E 73 295 97.000000
E 73 405 100.000000
E 73 475 103.000000
E 74 131 108.000000
E 74 227 101.000000
E 74 344 100.000000
E 74 375 102.000000
E 74 423 101.000000
E 74 445 102.000000
E 74 490 108.000000
E 74 573 103.000000
E 75 128 100.000000
E 75 158 101.000000
E 75 340 100.000000
E 75 367 105.000000
E 75 368 93.000000
E 75 487 104.000000
E 75 525 105.000000
E 75 580 93.000000
E 75 628 101.000000
E 76 162 99.000000
E 76 167 92.000000
E 76 194 99.000000
E 77 132 99.000000
E 77 183 104.000000
E 77 251 94.000000
E 77 292 101.000000
E 77 629 96.000000
E 78 84 92.000000
E 78 229 99.000000
E 78 460 100.000000
E 78 620 94.000000
E 79 338 108.000000
E 79 585 101.000000
E 79 590 94.000000
E 80 115 108.000000
E 80 130 103.000000
E 80 326 91.000000
E 80 345 103.000000
E 80 634 102.000000
E 81 147 96.000000
E 81 175 92.000000
E 81 295 107.000000
E 81 355 102.000000
E 81 469 96.000000
E 82 148 85.000000
E 82 529 102.000000
E 83 474 99.000000
E 83 502 96.000000
E 84 374 96.000000
E 84 380 104.000000
E 84 638 95.000000
E 85 104 96.000000
E 85 141 99.000000
E 85 534 104.000000
E 86 99 98.000000
E 87 119 98.000000
E 87 194 99.000000
E 87 262 97.000000
E 87 479 94.000000
E 88 303 94.000000
E 89 373 103.000000
E 90 328 99.000000
E 90 509 100.000000
E 91 148 100.000000
E 91 218 96.000000
E 91 342 102.000000
E 91 383 95.000000
E 92 167 92.000000
E 93 139 101.000000
E 93 417 95.000000
E 93 492 104.000000
E 93 580 102.000000
E 93 591 103.000000
E 94 262 104.000000
E 94 267 97.000000
E 94 574 98.000000
E 94 592 96.000000
E 94 609 100.000000
E 95 284 105.000000
E 96 180 101.000000
E 96 302 94.000000
E 96 343 97.000000
E 96 430 95.000000
E 96 482 103.000000
E 96 592 99.000000
E 97 191 101.000000
E 97 313 102.000000
E 97 463 101.000000
E 98 393 101.000000
E 98 537 101.000000
E 98 569 100.000000
E 99 307 98.000000
E 99 348 96.000000
E 99 569 102.000000
E 99 617 95.000000
E 100 116 94.000000
E 100 126 98.000000
E 100 156 100.000000
E 100 374 97.000000
E 100 447 101.000000
E 100 640 97.000000
E 101 144 99.000000
E 101 175 107.000000
E 101 241 94.000000
E 101 630 97.000000
E 102 169 101.000000
E 102 180 98.000000
E 103 112 100.000000
E 103 548 103.000000
E 103 590 98.000000
E 103 612 98.000000
E 103 638 102.000000
E 104 140 97.000000
E 104 185 91.000000
E 104 424 99.000000
E 104 549 99.000000
E 104 557 90.000000
E 104 560 110.000000
E 105 320 99.000000
E 105 345 107.000000
E 105 374 104.000000
E 106 168 105.000000
E 106 232 101.000000
E 106 523 101.000000
E 107 273 110.000000
E 107 482 105.000000
E 107 507 94.000000
E 107 530 101.000000
E 108 117 106.000000
E 108 618 105.000000
E 109 498 92.000000
E 109 635 99.000000
E 110 201 95.000000
E 110 451 98.000000
E 110 523 96.000000
E 110 614 102.000000
E 111 180 104.000000
E 111 279 100.000000
E 112 200 92.000000
E 112 273 103.000000
E 112 306 100.000000
E 112 600 96.000000
E 113 178 105.000000
E 113 217 104.000000
E 113 234 97.000000
E 113 252 93.000000
E 113 325 103.000000
E 113 567 92.000000
E 114 270 92.000000
E 114 414 96.000000
E 114 590 105.000000
E 115 147 101.000000
E 115 151 92.000000
E 115 466 104.000000
E 115 543 107.000000
E 116 464 111.000000
E 116 626 100.000000
E 116 634 95.000000
E 117 124 96.000000
E 117 361 94.000000
E 117 614 101.000000
E 118 240 101.000000
E 118 310 104.000000
E 119 275 95.000000
E 119 292 99.000000
E 119 319 92.000000
E 119 339 99.000000
E 119 382 96.000000
E 119 491 98.000000
E 119 512 102.000000
E 119 606 94.000000
E 119 610 104.000000
E 119 612 106.000000
E 120 146 99.000000
E 120 167 103.000000
E 120 183 100.000000
E 120 372 97.000000
E 121 227 97.000000
E 121 412 101.000000
E 121 526 107.000000
E 122 192 100.000000
E 122 334 106.000000
E 122 561 103.000000
E 123 223 102.000000
E 123 325 95.000000
E 123 414 99.000000
E 123 521 105.000000
E 123 581 98.000000
E 124 352 101.000000
E 124 513 100.000000
E 124 524 98.000000
E 124 556 98.000000
E 125 161 104.000000
E 125 208 94.000000
E 125 268 105.000000
E 126 175 96.000000
E 126 189 98.000000
E 126 233 95.000000
E 126 256 107.000000
E 126 339 98.000000
E 126 440 100.000000
E 126 596 102.000000
E 127 370 99.000000
E 129 206 97.000000
E 129 590 100.000000
E 130 353 100.000000
E 130 529 98.000000
E 131 392 101.000000
E 131 399 96.000000
E 131 466 105.000000
E 132 298 96.000000
E 132 301 107.000000
E 132 302 96.000000
E 132 356 104.000000
E 132 608 109.000000
E 133 452 102.000000
E 134 529 100.000000
E 134 590 93.000000
E 135 346 98.000000
E 135 423 98.000000
E 135 489 102.000000
E 136 537 100.000000
E 136 583 109.000000
E 137 300 105.000000
E 137 597 97.000000
E 138 244 95.000000
E 138 467 98.000000
E 138 478 91.000000
E 138 545 95.000000
E 139 369 93.000000
E 139 426 96.000000
E 140 172 100.000000
E 140 456 103.000000
E 141 470 98.000000
E 141 574 101.000000
E 142 276 103.000000
E 142 277 96.000000
E 142 519 89.000000
E 142 619 102.000000
E 143 473 94.000000
E 143 485 100.000000
E 145 268 104.000000
E 145 280 104.000000
E 145 326 105.000000
E 145 477 86.000000
E 145 486 100.000000
E 145 494 90.000000
E 146 147 91.000000
E 146 336 101.000000
E 147 161 103.000000
E 147 235 99.000000
E 147 366 99.000000
E 147 552 89.000000
E 148 210 99.000000
E 148 212 92.000000
E 148 238 98.000000
E 148 250 102.000000
E 149 382 107.000000
E 150 249 99.000000
E 150 446 99.000000
E 151 235 100.000000
E 151 262 98.000000
E 151 276 107.000000
E 151 640 104.000000
E 152 241 102.000000
E 152 554 96.000000
E 152 601 107.000000
E 153 214 95.000000
E 154 417 102.000000
E 155 191 102.000000
E 155 531 103.000000
E 156 295 99.000000
E 156 445 95.000000
E 156 552 99.000000
E 157 548 105.000000
E 158 175 104.000000
E 158 235 95.000000
E 158 310 107.000000
E 158 433 99.000000
E 158 529 98.000000
E 159 354 101.000000
E 159 573 100.000000
E 160 177 104.000000
E 160 586 106.000000
E 161 250 99.000000
E 162 253 101.000000
E 162 558 97.000000
E 163 238 100.000000
E 163 561 98.000000
E 164 604 94.000000
E 165 571 105.000000
E 165 581 105.000000
E 166 201 105.000000
E 166 214 99.000000
E 166 360 103.000000
E 166 566 100.000000
E 167 269 98.000000
E 167 358 90.000000
E 167 417 101.000000
E 167 535 104.000000
E 167 567 92.000000
E 167 598 95.000000
E 167 629 101.000000
E 168 196 96.000000
E 168 304 97.000000
E 169 311 96.000000
E 169 509 94.000000
E 169 525 103.000000
E 169 544 105.000000
E 169 611 101.000000
E 170 189 97.000000
E 170 208 103.000000
E 170 592 110.000000
E 171 618 96.000000
E 172 217 95.000000
E 172 460 110.000000
E 172 622 98.000000
E 173 209 90.000000
E 173 217 99.000000
E 173 596 101.000000
E 173 615 91.000000
E 174 290 97.000000
E 174 373 95.000000
E 175 384 95.000000
E 175 636 104.000000
E 176 303 88.000000
E 176 336 111.000000
E 176 513 89.000000
E 176 556 102.000000
E 177 317 96.000000
E 177 332 105.000000
E 177 344 95.000000
E 177 560 98.000000
E 177 598 92.000000
E 179 367 98.000000
E 179 637 100.000000
E 180 387 94.000000
E 180 550 95.000000
E 181 245 103.000000
E 181 404 95.000000
E 181 504 97.000000
E 181 573 95.000000
E 181 640 103.000000
E 182 202 99.000000
E 182 378 104.000000
E 182 402 100.000000
E 182 551 100.000000
E 183 206 112.000000
E 183 607 96.000000
E 184 338 96.000000
E 184 570 97.000000
E 185 186 95.000000
E 185 223 104.000000
E 185 432 105.000000
E 186 378 93.000000
E 186 411 103.000000
E 187 296 101.000000
E 187 456 100.000000
E 188 286 105.000000
E 188 310 99.000000
E 188 356 98.000000
E 188 428 113.000000
E 188 506 98.000000
E 188 524 95.000000
E 188 579 102.000000
E 189 297 103.000000
E 189 397 107.000000
E 189 522 97.000000
E 189 536 93.000000
E 189 581 104.000000
E 190 318 97.000000
E 190 561 102.000000
E 191 344 97.000000
E 191 616 106.000000
E 192 344 95.000000
E 193 301 103.000000
E 193 452 105.000000
E 193 566 105.000000
E 194 319 107.000000
E 195 217 96.000000
E 195 566 110.000000
E 196 452 98.000000
E 196 457 88.000000
E 197 299 108.000000
E 197 399 103.000000
E 198 211 102.000000
E 198 447 96.000000
E 198 583 99.000000
E 199 224 94.000000
E 199 443 100.000000
E 199 574 102.000000
E 199 629 97.000000
E 200 236 99.000000
E 200 291 92.000000
E 200 300 94.000000
E 200 527 94.000000
E 200 621 109.000000
E 201 235 98.000000
E 202 531 99.000000
E 203 227 98.000000
E 203 237 97.000000
E 203 329 100.000000
E 203 529 105.000000
E 203 632 101.000000
E 204 239 92.000000
E 204 277 100.000000
E 204 388 105.000000
E 204 481 93.000000
E 204 601 95.000000
E 205 246 106.000000
E 205 432 101.000000
E 205 618 102.000000
E 206 290 100.000000
E 206 337 97.000000
E 206 424 103.000000
E 206 432 106.000000
E 207 216 106.000000
E 207 400 99.000000
E 207 409 101.000000
E 207 462 98.000000
E 207 505 103.000000
E 207 592 92.000000
E 208 549 99.000000
E 208 574 99.000000
E 209 461 103.000000
E 209 462 94.000000
E 209 619 100.000000
E 211 327 90.000000
E 211 399 99.000000
E 211 538 99.000000
E 212 219 97.000000
E 212 426 96.000000
E 212 491 105.000000
E 212 562 103.000000
E 213 286 97.000000
E 213 452 104.000000
E 213 531 101.000000
E 213 578 109.000000
E 214 244 96.000000
E 214 347 93.000000
E 214 563 107.000000
E 214 584 91.000000
E 215 437 96.000000
E 216 384 103.000000
E 217 402 102.000000
E 217 496 95.000000
E 217 543 94.000000
E 218 492 101.000000
E 218 498 102.000000
E 218 521 106.000000
E 218 575 95.000000
E 219 397 104.000000
E 219 479 107.000000
E 220 234 107.000000
E 220 341 102.000000
E 220 408 97.000000
E 220 467 98.000000
E 220 592 92.000000
E 221 231 107.000000
E 221 321 95.000000
E 221 418 100.000000
E 222 254 95.000000
E 222 326 90.000000
E 222 407 100.000000
E 222 432 104.000000
E 223 356 104.000000
E 223 370 104.000000
E 223 608 93.000000
E 224 382 92.000000
E 224 575 100.000000
E 225 239 95.000000
E 225 461 103.000000
E 225 585 98.000000
E 226 495 110.000000
E 226 560 99.000000
E 227 516 96.000000
E 228 264 101.000000
E 228 424 97.000000
E 230 234 112.000000
E 230 244 98.000000
E 230 266 98.000000
E 230 319 89.000000
E 230 399 93.000000
E 231 274 91.000000
E 232 354 99.000000
E 232 583 98.000000
E 232 588 92.000000
E 233 281 108.000000
E 233 359 104.000000
E 233 430 103.000000
E 234 335 102.000000
E 234 373 96.000000
E 235 399 106.000000
E 235 434 99.000000
E 235 619 98.000000
E 236 285 101.000000
E 236 566 94.000000
E 237 242 104.000000
E 237 423 101.000000
E 238 255 99.000000
E 238 406 95.000000
E 239 321 99.000000
E 239 411 98.000000
E 239 427 96.000000
E 239 465 109.000000
E 239 498 98.000000
E 239 547 104.000000
E 240 373 97.000000
E 240 518 97.000000
E 241 287 96.000000
E 241 289 103.000000
E 241 431 104.000000
E 241 512 98.000000
E 242 267 104.000000
E 242 621 104.000000
E 243 316 106.000000
E 243 437 96.000000
E 243 504 96.000000
E 244 291 98.000000
E 244 479 100.000000
E 244 524 101.000000
E 244 581 94.000000
E 245 581 101.000000
E 246 412 95.000000
E 246 451 93.000000
E 246 468 111.000000
E 246 581 102.000000
E 247 567 108.000000
E 247 584 97.000000
E 247 631 103.000000
E 248 295 89.000000
E 248 425 101.000000
E 248 535 97.000000
E 249 610 103.000000
E 250 343 108.000000
E 250 601 93.000000
E 251 470 106.000000
E 252 288 102.000000
E 252 300 95.000000
E 252 440 110.000000
E 252 471 100.000000
E 253 424 106.000000
E 254 385 100.000000
E 255 327 101.000000
E 256 395 98.000000
E 256 538 97.000000
E 256 633 101.000000
E 257 258 101.000000
E 257 334 104.000000
E 257 350 88.000000
E 257 544 97.000000
E 257 562 99.000000
E 258 626 96.000000
E 259 609 102.000000
E 260 409 89.000000
E 261 410 97.000000
E 262 270 100.000000
E 262 364 101.000000
E 262 626 95.000000
E 263 309 105.000000
E 263 360 110.000000
E 263 387 101.000000
E 263 571 93.000000
E 264 308 100.000000
E 264 613 107.000000
E 265 578 104.000000
E 265 623 100.000000
E 266 321 109.000000
E 266 479 100.000000
E 266 519 96.000000
E 266 566 94.000000
E 266 579 102.000000
E 266 587 95.000000
E 267 436 99.000000
E 268 406 101.000000
E 269 309 96.000000
E 269 345 102.000000
E 269 628 93.000000
E 270 272 97.000000
E 270 368 100.000000
E 270 461 98.000000
E 271 351 97.000000
E 271 512 98.000000
E 272 622 102.000000
E 273 280 99.000000
E 273 456 104.000000
E 274 295 107.000000
E 274 400 96.000000
E 274 479 96.000000
E 274 600 99.000000
E 274 605 105.000000
E 274 619 103.000000
E 274 637 103.000000
E 275 312 109.000000
E 275 317 95.000000
E 275 344 110.000000
E 275 403 106.000000
E 275 515 98.000000
E 277 311 101.000000
E 277 357 100.000000
E 277 379 100.000000
E 277 423 94.000000
E 278 629 101.000000
E 279 537 97.000000
E 280 490 93.000000
E 280 616 100.000000
E 281 600 101.000000
E 282 286 103.000000
E 282 351 95.000000
E 282 374 97.000000
E 282 485 96.000000
E 282 528 107.000000
E 282 532 106.000000
E 282 536 99.000000
E 282 612 102.000000
E 282 613 99.000000
E 283 413 89.000000
E 284 294 92.000000
E 285 435 106.000000
E 285 479 102.000000
E 286 527 93.000000
E 286 555 101.000000
E 287 410 98.000000
E 287 431 103.000000
E 288 298 105.000000
E 288 391 98.000000
E 288 434 98.000000
E 289 341 91.000000
E 289 361 94.000000
E 289 557 110.000000
E 290 507 98.000000
E 290 540 108.000000
E 291 385 93.000000
E 292 340 104.000000
E 293 529 104.000000
E 294 357 99.000000
E 294 393 91.000000
E 294 500 103.000000
E 294 602 90.000000
E 294 606 111.000000
E 295 399 89.000000
E 295 445 105.000000
E 295 472 93.000000
E 296 391 99.000000
E 296 542 92.000000
E 297 439 106.000000
E 297 449 103.000000
E 297 471 90.000000
E 298 365 99.000000
E 298 591 100.000000
E 299 460 87.000000
E 299 476 100.000000
E 299 484 102.000000
E 299 613 99.000000
E 302 449 106.000000
E 303 451 105.000000
E 303 584 91.000000
E 305 496 93.000000
E 305 618 108.000000
E 307 349 96.000000
E 307 477 98.000000
E 307 500 104.000000
E 307 617 109.000000
E 308 324 107.000000
E 309 375 101.000000
E 309 400 99.000000
E 310 445 98.000000
E 310 490 99.000000
E 310 588 102.000000
E 311 448 92.000000
E 312 326 91.000000
E 312 337 91.000000
E 312 619 104.000000
E 313 462 97.000000
E 313 495 92.000000
E 313 603 106.000000
E 314 340 112.000000
E 314 473 107.000000
E 315 401 101.000000
E 315 497 105.000000
E 315 558 98.000000
E 316 498 97.000000
E 316 639 109.000000
E 317 371 95.000000
E 317 539 104.000000
E 318 373 103.000000
E 319 504 99.000000
E 320 600 96.000000
E 321 462 104.000000
E 322 545 103.000000
E 322 592 102.000000
E 322 612 99.000000
E 323 449 99.000000
E 323 482 97.000000
E 324 369 97.000000
E 324 414 104.000000
E 324 443 97.000000
E 325 354 94.000000
E 328 397 94.000000
E 328 429 103.000000
E 329 353 103.000000
E 330 396 100.000000
E 330 469 98.000000
E 330 586 97.000000
E 331 395 92.000000
E 331 407 100.000000
E 331 476 101.000000
E 332 364 104.000000
E 332 459 97.000000
E 332 564 101.000000
E 333 578 94.000000
E 334 477 95.000000
E 334 635 101.000000
E 336 475 97.000000
E 337 411 92.000000
E 337 627 102.000000
E 338 534 98.000000
E 338 597 93.000000
E 339 439 101.000000
E 340 446 106.000000
E 340 495 97.000000
E 340 580 108.000000
E 340 591 104.000000
E 341 492 95.000000
E 341 501 108.000000
E 344 426 98.000000
E 344 564 104.000000
E 344 578 97.000000
E 344 618 111.000000
E 344 623 109.000000
E 345 370 99.000000
E 345 468 108.000000
E 345 561 93.000000
E 346 403 96.000000
E 346 472 97.000000
E 348 529 105.000000
E 350 358 107.000000
E 350 558 104.000000
E 351 526 92.000000
E 351 546 104.000000
E 352 525 96.000000
E 352 596 94.000000
E 354 474 101.000000
E 354 549 107.000000
E 354 590 102.000000
E 356 396 100.000000
E 358 382 105.000000
E 358 559 100.000000
E 358 619 102.000000
E 360 376 107.000000
E 360 533 97.000000
E 360 562 102.000000
E 360 585 96.000000
E 361 493 92.000000
E 362 366 88.000000
E 362 410 99.000000
E 362 523 99.000000
E 362 583 91.000000
E 363 567 91.000000
E 363 590 102.000000
E 364 383 96.000000
E 364 468 96.000000
E 365 525 97.000000
E 365 640 97.000000
E 366 527 99.000000
E 367 399 95.000000
E 367 613 106.000000
E 368 468 99.000000
E 369 385 98.000000
E 369 407 101.000000
E 370 456 90.000000
E 370 510 92.000000
E 371 493 98.000000
E 373 419 98.000000
E 374 475 99.000000
E 374 491 101.000000
E 374 549 91.000000
E 375 401 102.000000
E 375 626 101.000000
E 376 573 92.000000
E 377 383 103.000000
E 379 512 97.000000
E 380 385 101.000000
E 380 470 97.000000
E 380 593 93.000000
E 380 626 105.000000
E 384 479 93.000000
E 384 544 96.000000
E 384 615 109.000000
E 385 550 100.000000
E 388 581 98.000000
E 389 472 96.000000
E 389 530 96.000000
E 390 618 95.000000
E 391 511 115.000000
E 391 608 101.000000
E 392 639 89.000000
E 395 413 96.000000
E 396 453 96.000000
E 396 483 100.000000
E 396 512 98.000000
E 397 447 102.000000
E 398 514 103.000000
E 398 635 98.000000
E 399 403 96.000000
E 399 448 99.000000
E 400 537 93.000000
E 400 591 97.000000
E 404 489 99.000000
E 405 469 98.000000
E 405 506 105.000000
E 406 517 95.000000
E 406 589 98.000000
E 406 614 105.000000
E 406 626 102.000000
E 407 479 94.000000
E 409 558 98.000000
E 410 490 100.000000
E 410 518 100.000000
E 411 433 104.000000
E 412 573 99.000000
E 413 498 93.000000
E 413 639 100.000000
E 414 596 102.000000
E 415 436 91.000000
E 415 621 93.000000
E 416 431 105.000000
E 416 581 99.000000
E 419 469 92.000000
E 419 515 93.000000
E 420 484 98.000000
E 420 606 107.000000
E 421 567 102.000000
E 422 495 98.000000
E 422 527 99.000000
E 422 579 105.000000
E 425 605 99.000000
E 427 574 98.000000
E 429 472 91.000000
E 429 589 109.000000
E 429 633 99.000000
E 430 530 95.000000
E 430 548 92.000000
E 430 557 100.000000
E 431 541 104.000000
E 433 448 85.000000
E 434 478 97.000000
E 435 541 94.000000
E 435 596 102.000000
E 436 552 97.000000
E 437 505 90.000000
E 440 583 101.000000
E 440 616 99.000000
E 441 582 103.000000
E 442 601 97.000000
E 444 637 101.000000
E 445 462 95.000000
E 445 595 103.000000
E 447 460 100.000000
E 447 575 102.000000
E 448 500 109.000000
E 448 529 94.000000
E 448 551 99.000000
E 449 474 102.000000
E 449 524 99.000000
E 450 471 96.000000
E 451 489 103.000000
E 452 468 100.000000
E 454 549 96.000000
E 456 482 100.000000
E 458 638 98.000000
E 459 480 105.000000
E 459 616 98.000000
E 459 627 100.000000
E 460 490 98.000000
E 463 550 101.000000
E 463 636 106.000000
E 465 585 94.000000
E 466 493 101.000000
E 466 570 95.000000
E 466 576 98.000000
E 467 578 99.000000
E 468 485 102.000000
E 468 547 100.000000
E 469 491 93.000000
E 469 528 109.000000
E 470 594 102.000000
E 470 640 101.000000
E 472 484 91.000000
E 472 573 104.000000
E 474 513 99.000000
E 475 575 98.000000
E 479 539 102.000000
E 481 488 93.000000
E 481 559 104.000000
E 482 523 103.000000
E 482 566 107.000000
E 482 602 102.000000
E 484 568 98.000000
E 485 498 96.000000
E 489 544 102.000000
E 490 501 99.000000
E 491 597 95.000000
E 491 639 102.000000
E 492 565 110.000000
E 492 632 109.000000
E 494 573 107.000000
E 496 514 105.000000
E 497 533 103.000000
E 497 574 97.000000
E 497 603 93.000000
E 498 606 97.000000
E 499 623 94.000000
E 502 541 92.000000
E 503 510 102.000000
E 503 626 106.000000
E 505 613 101.000000
E 507 611 101.000000
E 509 637 100.000000
E 512 541 98.000000
E 512 583 97.000000
E 514 599 96.000000
E 514 629 111.000000
E 518 570 106.000000
E 519 624 106.000000
E 520 560 104.000000
E 521 540 107.000000
E 523 586 90.000000
E 524 556 92.000000
E 524 614 104.000000
E 525 630 101.000000
E 526 533 104.000000
E 526 596 99.000000
E 532 582 106.000000
E 533 543 97.000000
E 534 585 98.000000
E 535 547 106.000000
E 537 594 106.000000
E 539 625 101.000000
E 539 638 99.000000
E 540 560 106.000000
E 541 556 96.000000
E 541 627 115.000000
E 541 637 94.000000
E 542 625 100.000000
E 546 553 98.000000
E 546 578 99.000000
E 548 614 107.000000
E 548 624 100.000000
E 552 571 92.000000
E 556 623 100.000000
E 560 571 103.000000
E 562 600 103.000000
E 566 572 96.000000
E 568 571 104.000000
E 568 592 105.000000
E 570 573 92.000000
E 570 613 100.000000
E 572 615 102.000000
E 573 623 99.000000
E 576 578 108.000000
E 578 603 100.000000
E 581 620 99.000000
E 584 597 95.000000
E 592 609 110.000000
E 594 633 92.000000
E 595 620 90.000000
E 598 616 110.000000
E 601 617 100.000000
E 604 638 99.000000
E 607 630 98.000000
E 610 633 98.000000
E 622 636 93.000000
E 628 635 100.000000
END

SECTION Terminals
Terminals 25
TP 1 20.000000
TP 2 92.000000
TP 3 704.000000
TP 4 720.000000
TP 5 244.000000
TP 6 920.000000
TP 7 328.000000
TP 8 52.000000
TP 9 1080.000000
TP 10 76.000000
TP 11 1124.000000
TP 12 828.000000
TP 13 596.000000
TP 14 1164.000000
TP 15 476.000000
TP 16 676.000000
TP 17 1052.000000
TP 18 524.000000
TP 19 416.000000
TP 20 724.000000
TP 21 548.000000
TP 22 156.000000
TP 23 60.000000
TP 24 880.000000
TP 25 200.000000
END

EOF
